RT is False
Default write of storage_offers_DA.csv just to have a file (but constraint should be inactive)
Reading model...
...model read.
creating competitive generators file...
...competitive generators recorded.
Loading data...
.. day-ahead data read.
Compiling instance...
...instance created.
Creating Offer Mitigation (model will solve as dispatch if TRUE)...
...storage offer mitigation file created
Converting model to MPEC...
...converted
MIP
NOTE: initial MIP solve with only storage competitive to get feasible solution
Solving...

Welcome to IBM(R) ILOG(R) CPLEX(R) Interactive Optimizer 12.9.0.0
  with Simplex, Mixed Integer & Barrier Optimizers
5725-A06 5725-A29 5724-Y48 5724-Y49 5724-Y54 5724-Y55 5655-Y21
Copyright IBM Corp. 1988, 2019.  All Rights Reserved.

Type 'help' for a list of available commands.
Type 'help' followed by a command name for more
information on commands.

CPLEX> Logfile 'cplex.log' closed.
Logfile 'C:\Users\llavin\Desktop\competitiveMPEC_dev1.27\logs\tmpl6gxx31v.cplex.log' open.
CPLEX> New value for parallel optimization mode: -1
CPLEX> New value for mixed integer optimality gap tolerance: 0.01
CPLEX> New value for feasibility tolerance: 1e-05
CPLEX> New value for deterministic time limit in ticks: 150000
CPLEX> Problem 'C:\Users\llavin\Desktop\competitiveMPEC_dev1.27\logs\tmpf3ckuvb5.pyomo.lp' read.
Read time = 0.23 sec. (13.83 ticks)
CPLEX> Problem name         : C:\Users\llavin\Desktop\competitiveMPEC_dev1.27\logs\tmpf3ckuvb5.pyomo.lp
Objective sense      : Maximize
Variables            :   53321  [Nneg: 889,  Box: 21854,  Free: 3480,
                                 Binary: 27098]
Objective nonzeros   :    8938
Linear constraints   :  122140  [Less: 40959,  Greater: 58612,  Equal: 22569]
  Nonzeros           :  288439
  RHS nonzeros       :   66964

Variables            : Min LB: -5000.000        Max UB: 5000.000       
Objective nonzeros   : Min   : 0.1000000        Max   : 796.3000       
Linear constraints   :
  Nonzeros           : Min   : 0.1000000        Max   : 990000.0       
  RHS nonzeros       : Min   : 0.1000000        Max   : 1000000.       
CPLEX> CPXPARAM_Parallel                                -1
CPXPARAM_Simplex_Tolerances_Feasibility          1.0000000000000001e-05
CPXPARAM_DetTimeLimit                            150000
CPXPARAM_MIP_Tolerances_MIPGap                   0.01
Tried aggregator 3 times.
MIP Presolve eliminated 88144 rows and 18987 columns.
MIP Presolve added 3335 rows and 0 columns.
MIP Presolve modified 24472 coefficients.
Aggregator did 12841 substitutions.
Reduced MIP has 24490 rows, 20924 columns, and 68672 nonzeros.
Reduced MIP has 8264 binaries, 0 generals, 0 SOSs, and 0 indicators.
Presolve time = 0.30 sec. (166.09 ticks)
Probing fixed 405 vars, tightened 5925 bounds.
Probing time = 0.08 sec. (21.08 ticks)
Tried aggregator 2 times.
MIP Presolve eliminated 906 rows and 811 columns.
MIP Presolve modified 2986 coefficients.
Aggregator did 41 substitutions.
Reduced MIP has 23543 rows, 20072 columns, and 65922 nonzeros.
Reduced MIP has 7859 binaries, 0 generals, 0 SOSs, and 0 indicators.
Presolve time = 0.14 sec. (90.42 ticks)
Probing fixed 0 vars, tightened 224 bounds.
Probing time = 0.11 sec. (21.46 ticks)
Clique table members: 37290.
MIP emphasis: balance optimality and feasibility.
MIP search method: dynamic search.
Parallel mode: opportunistic, using up to 32 threads.
Root relaxation solution time = 0.53 sec. (567.78 ticks)

        Nodes                                         Cuts/
   Node  Left     Objective  IInf  Best Integer    Best Bound    ItCnt     Gap

      0     0   114194.7239   179                 114194.7239     6173         
      0     0   111628.9648   135                   Cuts: 159     6350         
      0     0   111120.1389   145                   Cuts: 141     6467         
      0     0   111051.7837   134                    Cuts: 54     6513         
      0     0   111051.7837   132                  MIRcuts: 2     6516         
      0    34    81387.5712    63                    Cuts: 14     8530         
Elapsed time = 7.02 sec. (3285.14 ticks, tree = 0.20 MB, solutions = 0)
    413    64    44912.2642    73                  92021.0243     9384         
    873   403    61512.5185    59                  92021.0243    14674         
*  1215+  661                        14319.5887    92021.0243           542.62%
   1422   840   -35551.3215    35    14319.5887    92021.0243    22418  542.62%
   2113   761    25859.2383    57    14319.5887    89350.5709    30157  523.97%
   2798  1099    31914.5495    60    14319.5887    79999.7076    42927  458.67%
   3469  1314    29608.0142    64    14319.5887    78243.0865    47711  446.41%
   4181  1852    14374.8977    71    14319.5887    70902.8906    74048  395.15%
   4883  1749    26815.0905    77    14319.5887    70902.8906    64161  395.15%
   5520  1913    48999.9522    52    14319.5887    64522.2514    77535  350.59%
   7892  3301    36046.4799    57    14319.5887    56436.3665   129021  294.12%
Elapsed time = 25.38 sec. (6387.25 ticks, tree = 21.37 MB, solutions = 1)
   8761  4048        cutoff          14319.5887    35367.4731   160338  146.99%
   8872     4    14674.0786    14    14319.5887    14458.9548   161910    0.97%

Cover cuts applied:  2
Implied bound cuts applied:  18
Flow cuts applied:  56
Mixed integer rounding cuts applied:  10
Lift and project cuts applied:  2

Root node processing (before b&c):
  Real time             =    5.27 sec. (3248.38 ticks)
Parallel b&c, 32 threads:
  Real time             =   29.86 sec. (7965.91 ticks)
  Sync time (average)   =    3.32 sec.
  Wait time (average)   =    0.18 sec.
                          ------------
Total (root+branch&cut) =   35.13 sec. (11214.29 ticks)

Solution pool: 1 solution saved.

MIP - Integer optimal, tolerance (0.01/1e-06):  Objective =  1.4319588687e+04
Current MIP best bound =  1.4458954798e+04 (gap = 139.366, 0.97%)
Solution time =   35.16 sec.  Iterations = 161937  Nodes = 8875 (1)
Deterministic time = 11214.44 ticks  (318.99 ticks/sec)

CPLEX> Incumbent solution written to file 'C:\Users\llavin\Desktop\competitiveMPEC_dev1.27\logs\tmpsfqn8v4b.cplex.sol'.
CPLEX> Exporting results... 
